Minimize
  - 20 y_0 - 23 y_1 - 19 y_2 - 44 y_4 - 23 y_5 - 12 y_6 - 20 y_7 - 27 y_8
   - 44 y_9 + 232 Constant
Subject To
 c_0: y_8 = 1
 c_1_0: y_0 >= 1
 c_1_1: y_1 >= 1
 c_1_2: y_2 >= 1
 c_1_3: y_3 >= 1
 c_1_4: y_4 + y_9 >= 1
 c_1_5: y_5 >= 1
 c_1_6: y_6 >= 1
 c_1_7: y_7 >= 1
 c_1_8: y_8 >= 1
 c_1_9: y_4 + y_9 >= 1
Bounds
 Constant = 1
Binaries
 y_0 y_1 y_2 y_3 y_4 y_5 y_6 y_7 y_8 y_9
End
